NAME : rat99.tsp
TYPE : TOUR
DIMENSION : 99
TOUR_LENGTH : 1329.1734281920458
TOUR_SECTION
1
2
10
11
3
12
13
14
4
5
6
7
8
9
18
17
27
36
35
26
25
16
15
24
23
22
31
32
41
33
42
43
34
44
45
54
63
72
81
80
79
89
90
99
98
97
96
95
86
87
88
77
76
85
84
94
93
92
91
83
82
73
75
74
64
65
66
67
68
78
69
70
71
61
62
53
52
51
50
49
60
59
58
57
56
55
46
47
48
40
39
38
37
28
29
30
21
20
19
-1
